% seed = 0

mint = 18;
% maxt = 114;

nActs = 35;
dur = [0,4,6,4,4,2,3,1,5,5,2,2,5,5,6,1,3,4,5,4,6,3,3,3,2,2,3,5,3,3,3,4,2,1,0];

nSkills = 8;
sreq = [| 0,0,0,0,0,0,0,0,
	| 1,2,0,1,1,0,0,0,
	| 0,2,1,0,0,0,2,0,
	| 1,1,2,0,0,1,0,0,
	| 4,1,0,0,0,0,0,0,
	| 0,1,1,1,1,0,0,0,
	| 0,2,0,0,1,0,0,1,
	| 0,2,0,0,0,0,1,1,
	| 2,0,0,1,0,1,0,0,
	| 4,0,0,0,0,0,0,0,
	| 1,0,1,0,0,1,0,0,
	| 1,1,0,0,0,0,0,1,
	| 1,1,0,0,0,0,0,1,
	| 1,0,0,1,1,0,0,0,
	| 2,0,0,0,0,0,0,1,
	| 1,1,1,0,0,1,0,1,
	| 0,1,0,0,1,0,2,1,
	| 2,0,0,0,0,0,2,1,
	| 1,0,0,1,1,1,0,1,
	| 3,0,0,0,0,1,0,1,
	| 0,2,0,0,1,0,1,0,
	| 0,0,1,0,2,1,0,0,
	| 2,0,0,1,0,0,1,0,
	| 1,0,0,2,1,0,0,0,
	| 1,1,1,0,0,0,0,1,
	| 0,2,1,0,0,0,1,0,
	| 0,1,1,0,0,1,0,0,
	| 2,1,0,0,0,0,0,0,
	| 0,1,1,0,1,0,0,0,
	| 0,2,0,0,0,0,0,1,
	| 0,2,0,0,0,0,0,1,
	| 1,0,0,2,2,0,0,0,
	| 3,0,0,0,1,0,1,0,
	| 2,0,1,1,0,1,0,0,
	| 0,0,0,0,0,0,0,0, |];

% SumOfsreq = 134;

nResources = 10;
mastery = [| false,true,true,true,true,true,true,false,
	| true,true,true,false,true,true,true,false,
	| false,false,true,true,true,true,true,true,
	| true,false,true,true,true,false,true,false,
	| true,true,true,true,false,false,false,true,
	| false,true,false,true,true,true,false,true,
	| true,true,true,false,false,true,false,true,
	| false,true,true,false,false,false,true,true,
	| true,true,false,false,true,true,false,false,
	| false,true,true,false,false,false,true,true, |];

nPrecs = 81;
pred = [1,1,1,1,1,1,1,1,1,1,1,1,1,1,1,1,1,1,1,1,1,1,1,1,1,1,1,1,1,1,1,1,1,2,2,2,2,3,3,3,4,4,4,5,5,5,6,6,6,7,8,8,9,10,11,12,13,14,15,16,17,18,18,19,20,21,21,22,23,23,24,25,26,27,28,29,30,31,32,33,34];
succ = [2,3,4,5,6,7,8,9,10,11,12,13,14,15,16,17,18,19,20,21,22,23,24,25,26,27,28,29,30,31,32,33,34,26,11,12,16,13,15,8,21,5,15,18,23,24,14,15,24,23,19,29,35,18,14,35,15,16,35,35,35,22,32,24,35,33,22,24,25,26,35,30,35,35,35,35,33,35,35,35,35];

nUnrels = 461;
unpred = [2,2,2,2,2,2,2,2,2,2,2,2,2,2,2,2,2,2,2,2,2,2,2,2,2,2,2,3,3,3,3,3,3,3,3,3,3,3,3,3,3,3,3,3,3,3,3,3,3,3,3,3,4,4,4,4,4,4,4,4,4,4,4,4,4,4,4,4,4,4,5,5,5,5,5,5,5,5,5,5,5,5,5,5,5,5,5,5,5,5,6,6,6,6,6,6,6,6,6,6,6,6,6,6,6,6,6,6,6,6,6,6,6,6,7,7,7,7,7,7,7,7,7,7,7,7,7,7,7,7,7,7,7,7,7,7,8,8,8,8,8,8,8,8,8,8,8,8,8,8,8,8,8,8,8,8,8,8,8,9,9,9,9,9,9,9,9,9,9,9,9,9,9,9,9,9,9,9,9,9,9,9,9,9,10,10,10,10,10,10,10,10,10,10,10,10,10,10,10,10,10,10,10,10,11,11,11,11,11,11,11,11,11,11,11,11,11,11,11,11,11,11,11,11,11,12,12,12,12,12,12,12,12,12,12,12,12,12,12,12,12,12,12,12,12,12,12,13,13,13,13,13,13,13,13,13,13,13,13,13,13,13,13,13,13,13,13,14,14,14,14,14,14,14,14,14,14,14,14,14,14,14,14,14,14,14,15,15,15,15,15,15,15,15,15,15,15,15,15,15,15,15,15,15,15,16,16,16,16,16,16,16,16,16,16,16,16,16,16,16,16,16,16,17,17,17,17,17,17,17,17,17,17,17,17,17,17,17,17,17,18,18,18,18,18,18,18,18,18,18,18,18,18,19,19,19,19,19,19,19,19,19,19,19,19,19,19,20,20,20,20,20,20,20,20,20,20,20,20,20,20,21,21,21,21,21,21,21,21,21,21,22,22,22,22,22,22,22,22,22,22,22,23,23,23,23,23,23,23,24,24,24,24,24,24,24,24,24,24,25,25,25,25,25,25,25,26,26,26,26,26,26,26,26,27,27,27,27,27,27,27,28,28,28,28,28,28,29,29,29,29,29,30,30,30,31,31,31,32,32,33];
unsucc = [3,4,5,6,7,8,9,10,13,15,17,18,19,20,21,22,23,24,25,27,28,29,30,31,32,33,34,4,5,6,7,9,10,11,12,14,16,17,18,20,21,22,23,25,26,27,28,30,31,32,33,34,6,7,8,9,10,11,12,13,14,16,17,19,20,27,28,29,31,34,6,7,8,9,10,11,12,13,14,15,16,17,19,20,21,27,28,29,31,34,7,8,9,10,11,12,13,17,18,19,20,21,22,23,25,26,27,28,29,30,31,32,33,34,8,9,10,11,12,13,14,15,16,17,18,19,20,21,22,24,27,28,29,31,32,34,9,10,11,12,13,14,15,16,17,18,20,21,22,23,25,26,27,28,30,31,32,33,34,10,11,12,13,14,15,16,17,18,19,20,21,22,23,24,25,26,27,28,29,30,31,32,33,34,11,12,13,14,15,16,17,19,20,21,23,25,26,27,28,29,30,31,33,34,12,13,15,17,18,19,20,21,22,23,24,25,26,27,28,29,30,31,32,33,34,13,14,15,16,17,18,19,20,21,22,23,24,25,26,27,28,29,30,31,32,33,34,14,16,17,18,19,20,21,22,23,24,25,26,27,28,29,30,31,32,33,34,15,17,18,19,20,21,22,23,24,25,26,27,28,29,30,31,32,33,34,16,17,18,19,20,21,22,23,24,25,26,27,28,29,30,31,32,33,34,17,18,19,20,21,22,23,24,25,26,27,28,29,30,31,32,33,34,18,19,20,21,22,23,24,25,26,27,28,29,30,31,32,33,34,19,20,21,23,25,26,27,28,29,30,31,33,34,20,21,22,23,25,26,27,28,29,30,31,32,33,34,21,22,23,24,25,26,27,28,29,30,31,32,33,34,23,25,26,27,28,29,30,31,32,34,23,25,26,27,28,29,30,31,32,33,34,24,27,28,29,31,32,34,25,26,27,28,29,30,31,32,33,34,26,27,28,29,31,32,34,27,28,29,30,31,32,33,34,28,29,30,31,32,33,34,29,30,31,32,33,34,30,31,32,33,34,31,32,34,32,33,34,33,34,34];

USEFUL_RES = [{},
	{1,2,3,4,5,6,7,8,9,10},
	{1,2,3,4,5,6,7,8,9,10},
	{1,2,3,4,5,6,7,8,9,10},
	{1,2,4,5,6,7,8,9,10},
	{1,2,3,4,5,6,7,8,9,10},
	{1,2,3,4,5,6,7,8,9,10},
	{1,2,3,4,5,6,7,8,9,10},
	{1,2,3,4,5,6,7,9},
	{2,4,5,7,9},
	{1,2,3,4,5,6,7,8,9,10},
	{1,2,3,4,5,6,7,8,9,10},
	{1,2,3,4,5,6,7,8,9,10},
	{1,2,3,4,5,6,7,9},
	{2,3,4,5,6,7,8,9,10},
	{1,2,3,4,5,6,7,8,9,10},
	{1,2,3,4,5,6,7,8,9,10},
	{1,2,3,4,5,6,7,8,9,10},
	{1,2,3,4,5,6,7,8,9,10},
	{1,2,3,4,5,6,7,8,9,10},
	{1,2,3,4,5,6,7,8,9,10},
	{1,2,3,4,5,6,7,8,9,10},
	{1,2,3,4,5,6,7,8,9,10},
	{1,2,3,4,5,6,7,9},
	{1,2,3,4,5,6,7,8,9,10},
	{1,2,3,4,5,6,7,8,9,10},
	{1,2,3,4,5,6,7,8,9,10},
	{1,2,4,5,6,7,8,9,10},
	{1,2,3,4,5,6,7,8,9,10},
	{1,2,3,5,6,7,8,9,10},
	{1,2,3,5,6,7,8,9,10},
	{1,2,3,4,5,6,7,9},
	{1,2,3,4,5,6,7,8,9,10},
	{1,2,3,4,5,6,7,8,9,10},
	{}];

POTENTIAL_ACT = [{2,3,4,5,6,7,8,9,11,12,13,14,16,17,18,19,20,21,22,23,24,25,26,27,28,29,30,31,32,33,34},
	{2,3,4,5,6,7,8,9,10,11,12,13,14,15,16,17,18,19,20,21,22,23,24,25,26,27,28,29,30,31,32,33,34},
	{2,3,4,6,7,8,9,11,12,13,14,15,16,17,18,19,20,21,22,23,24,25,26,27,29,30,31,32,33,34},
	{2,3,4,5,6,7,8,9,10,11,12,13,14,15,16,17,18,19,20,21,22,23,24,25,26,27,28,29,32,33,34},
	{2,3,4,5,6,7,8,9,10,11,12,13,14,15,16,17,18,19,20,21,22,23,24,25,26,27,28,29,30,31,32,33,34},
	{2,3,4,5,6,7,8,9,11,12,13,14,15,16,17,18,19,20,21,22,23,24,25,26,27,28,29,30,31,32,33,34},
	{2,3,4,5,6,7,8,9,10,11,12,13,14,15,16,17,18,19,20,21,22,23,24,25,26,27,28,29,30,31,32,33,34},
	{2,3,4,5,6,7,8,11,12,13,15,16,17,18,19,20,21,22,23,25,26,27,28,29,30,31,33,34},
	{2,3,4,5,6,7,8,9,10,11,12,13,14,15,16,17,18,19,20,21,22,23,24,25,26,27,28,29,30,31,32,33,34},
	{2,3,4,5,6,7,8,11,12,13,15,16,17,18,19,20,21,22,23,25,26,27,28,29,30,31,33,34}];
